jpf-symbc-bounded/src/examples/symbolicheap/bounded/bounddb/BinTree-02.cnf
p cnf 50 43                 
-1 -10 20 0
-2 -1 -11 0
11 -15 0
-1 12 0
-2 12 0
1 2 -12 0
-12 -3 -13 0
13 -15 0
3 12 -14 0
14 -15 0
-5 -4 -16 0
-8 -7 -18 0
9 -23 0
7 8 -19 0
19 -23 0
23 -36 0
-3 -10 22 0
-22 -35 0
-22 33 0
2 -21 0
10 -21 0
-2 -10 21 0
-5 25 0
-8 25 0
-21 -25 30 0
-30 33 0
-33 21 -34 0
34 -35 0
35 -36 0
36 -45 0
6 -37 0
4 5 -17 0
17 -37 0
37 -45 0
-5 -8 47 0
-47 -21 -48 0
-20 0
10 0
15 0
16 0
18 0
45 0
48 0
